% Generated by MiniZinc 2.9.4
% Solver library: /snap/minizinc/1183/share/minizinc/gecode
% Command line invocation: /snap/minizinc/1183/bin/minizinc --compile --solver Gecode --use-gecode atsp.mzn instance1_0p05.dzn -o atsp.fzn 

predicate int_eq_imp(var int: a,var int: b,var bool: r);
predicate gecode_int_element(var int: idx,int: idxoffset,array [int] of var int: x,var int: c);
predicate int_lin_eq_imp(array [int] of int: as,array [int] of var int: bs,int: c,var bool: r);
predicate int_ne_imp(var int: a,var int: b,var bool: r);
predicate bool_clause_reif(array [int] of var bool: as,array [int] of var bool: bs,var bool: b);
predicate int_le_imp(var int: a,var int: b,var bool: r);
predicate array_int_maximum(var int: m,array [int] of var int: x);
array [1..3] of int: X_INTRODUCED_66_ = [1,1,-1];
array [1..5] of int: X_INTRODUCED_92_ = [-1,-1,-1,-1,-1];
array [1..2] of int: X_INTRODUCED_111_ = [1,-3570];
array [1..2] of int: X_INTRODUCED_117_ = [1,-3060];
array [1..2] of int: X_INTRODUCED_158_ = [1,-1];
array [1..4] of int: X_INTRODUCED_163_ = [1,-1,-1,-300];
array [1..6] of int: X_INTRODUCED_172_ = [1,-1,-1,-300,-1,-300];
array [1..8] of int: X_INTRODUCED_181_ = [1,-1,-1,-300,-1,-300,-1,-300];
array [1..10] of int: X_INTRODUCED_190_ = [1,-1,-1,-300,-1,-300,-1,-300,-1,-300];
array [1..4] of int: X_INTRODUCED_295_ = [1,1,1,1];
array [1..11] of int: X_INTRODUCED_390_ = [1,-1,-1,-1,-1,-1,-1,-1,-1,-1,-1];
array [1..3] of int: X_INTRODUCED_398_ = [1,-1,-1];
var 0..2: X_INTRODUCED_0_;
var 0..2: X_INTRODUCED_1_;
var 0..2: X_INTRODUCED_2_;
var 0..2: X_INTRODUCED_3_;
var 0..2: X_INTRODUCED_4_;
var 2..30: X_INTRODUCED_5_;
var 2..30: X_INTRODUCED_6_;
var 2..30: X_INTRODUCED_7_;
var 2..30: X_INTRODUCED_8_;
var 2..30: X_INTRODUCED_9_;
var 0..9: X_INTRODUCED_11_;
var 0..3: X_INTRODUCED_12_;
var 0..9: X_INTRODUCED_13_;
var 0..3: X_INTRODUCED_14_;
var 0..9: X_INTRODUCED_15_;
var 0..3: X_INTRODUCED_16_;
var 0..9: X_INTRODUCED_17_;
var 0..3: X_INTRODUCED_18_;
var 0..9: X_INTRODUCED_19_;
var 0..3: X_INTRODUCED_20_;
var 0..270: X_INTRODUCED_22_ ::var_is_introduced :: is_defined_var;
var 0..90: X_INTRODUCED_23_ ::var_is_introduced :: is_defined_var;
var 0..270: X_INTRODUCED_24_ ::var_is_introduced :: is_defined_var;
var 0..90: X_INTRODUCED_25_ ::var_is_introduced :: is_defined_var;
var 0..270: X_INTRODUCED_26_ ::var_is_introduced :: is_defined_var;
var 0..90: X_INTRODUCED_27_ ::var_is_introduced :: is_defined_var;
var 0..270: X_INTRODUCED_28_ ::var_is_introduced :: is_defined_var;
var 0..90: X_INTRODUCED_29_ ::var_is_introduced :: is_defined_var;
var 0..270: X_INTRODUCED_30_ ::var_is_introduced :: is_defined_var;
var 0..90: X_INTRODUCED_31_ ::var_is_introduced :: is_defined_var;
var 6120..538500: X_INTRODUCED_32_;
var 6120..538500: X_INTRODUCED_33_;
var 6120..538500: X_INTRODUCED_34_;
var 6120..538500: X_INTRODUCED_35_;
var 6120..538500: X_INTRODUCED_36_;
var 0..107100: X_INTRODUCED_37_;
var 0..107100: X_INTRODUCED_38_;
var 0..107100: X_INTRODUCED_39_;
var 0..107100: X_INTRODUCED_40_;
var 0..107100: X_INTRODUCED_41_;
var 6120..538500: X_INTRODUCED_42_ ::var_is_introduced :: is_defined_var;
var 6120..538500: X_INTRODUCED_43_ ::var_is_introduced :: is_defined_var;
var 1..5: X_INTRODUCED_44_;
var 1..5: X_INTRODUCED_45_;
var 6120..538500: makespan:: is_defined_var:: output_var;
var 0..1350: waste:: output_var:: is_defined_var;
var 642199..1685430: tardiness:: output_var:: is_defined_var;
var 648319..2225280: X_INTRODUCED_47_:: is_defined_var;
var bool: X_INTRODUCED_49_ ::var_is_introduced :: is_defined_var;
var bool: X_INTRODUCED_50_ ::var_is_introduced :: is_defined_var;
var bool: X_INTRODUCED_51_ ::var_is_introduced :: is_defined_var;
var bool: X_INTRODUCED_52_ ::var_is_introduced :: is_defined_var;
var bool: X_INTRODUCED_53_ ::var_is_introduced :: is_defined_var;
var bool: X_INTRODUCED_54_ ::var_is_introduced :: is_defined_var;
var bool: X_INTRODUCED_55_ ::var_is_introduced :: is_defined_var;
var bool: X_INTRODUCED_56_ ::var_is_introduced :: is_defined_var;
var bool: X_INTRODUCED_57_ ::var_is_introduced :: is_defined_var;
var bool: X_INTRODUCED_58_ ::var_is_introduced :: is_defined_var;
var bool: X_INTRODUCED_59_ ::var_is_introduced :: is_defined_var;
var bool: X_INTRODUCED_60_ ::var_is_introduced :: is_defined_var;
var bool: X_INTRODUCED_61_ ::var_is_introduced :: is_defined_var;
var bool: X_INTRODUCED_62_ ::var_is_introduced :: is_defined_var;
var {0,7,9}: X_INTRODUCED_65_ ::var_is_introduced :: is_defined_var;
var {0,7,9}: X_INTRODUCED_68_ ::var_is_introduced :: is_defined_var;
var {0,7,9}: X_INTRODUCED_70_ ::var_is_introduced :: is_defined_var;
var {0,7,9}: X_INTRODUCED_72_ ::var_is_introduced :: is_defined_var;
var {0,7,9}: X_INTRODUCED_74_ ::var_is_introduced :: is_defined_var;
var bool: X_INTRODUCED_94_ ::var_is_introduced :: is_defined_var;
var bool: X_INTRODUCED_95_ ::var_is_introduced :: is_defined_var;
var bool: X_INTRODUCED_96_ ::var_is_introduced :: is_defined_var;
var bool: X_INTRODUCED_97_ ::var_is_introduced :: is_defined_var;
var bool: X_INTRODUCED_98_ ::var_is_introduced :: is_defined_var;
var bool: X_INTRODUCED_99_ ::var_is_introduced :: is_defined_var;
var bool: X_INTRODUCED_100_ ::var_is_introduced :: is_defined_var;
var bool: X_INTRODUCED_101_ ::var_is_introduced :: is_defined_var;
var bool: X_INTRODUCED_102_ ::var_is_introduced :: is_defined_var;
var bool: X_INTRODUCED_103_ ::var_is_introduced :: is_defined_var;
var bool: X_INTRODUCED_104_ ::var_is_introduced :: is_defined_var;
var bool: X_INTRODUCED_105_ ::var_is_introduced :: is_defined_var;
var bool: X_INTRODUCED_106_ ::var_is_introduced :: is_defined_var;
var bool: X_INTRODUCED_107_ ::var_is_introduced :: is_defined_var;
var bool: X_INTRODUCED_108_ ::var_is_introduced :: is_defined_var;
var bool: X_INTRODUCED_112_ ::var_is_introduced :: is_defined_var;
var bool: X_INTRODUCED_113_ ::var_is_introduced :: is_defined_var;
var bool: X_INTRODUCED_118_ ::var_is_introduced :: is_defined_var;
var bool: X_INTRODUCED_119_ ::var_is_introduced :: is_defined_var;
var bool: X_INTRODUCED_122_ ::var_is_introduced :: is_defined_var;
var bool: X_INTRODUCED_123_ ::var_is_introduced :: is_defined_var;
var bool: X_INTRODUCED_126_ ::var_is_introduced :: is_defined_var;
var bool: X_INTRODUCED_127_ ::var_is_introduced :: is_defined_var;
var bool: X_INTRODUCED_130_ ::var_is_introduced :: is_defined_var;
var bool: X_INTRODUCED_131_ ::var_is_introduced :: is_defined_var;
var bool: X_INTRODUCED_134_ ::var_is_introduced :: is_defined_var;
var bool: X_INTRODUCED_135_ ::var_is_introduced :: is_defined_var;
var bool: X_INTRODUCED_138_ ::var_is_introduced :: is_defined_var;
var bool: X_INTRODUCED_139_ ::var_is_introduced :: is_defined_var;
var bool: X_INTRODUCED_142_ ::var_is_introduced :: is_defined_var;
var bool: X_INTRODUCED_143_ ::var_is_introduced :: is_defined_var;
var bool: X_INTRODUCED_146_ ::var_is_introduced :: is_defined_var;
var bool: X_INTRODUCED_147_ ::var_is_introduced :: is_defined_var;
var bool: X_INTRODUCED_150_ ::var_is_introduced :: is_defined_var;
var bool: X_INTRODUCED_151_ ::var_is_introduced :: is_defined_var;
var bool: X_INTRODUCED_154_ ::var_is_introduced :: is_defined_var;
var bool: X_INTRODUCED_155_ ::var_is_introduced :: is_defined_var;
var bool: X_INTRODUCED_159_ ::var_is_introduced :: is_defined_var;
var 0..1: X_INTRODUCED_160_ ::var_is_introduced :: is_defined_var;
var bool: X_INTRODUCED_164_ ::var_is_introduced :: is_defined_var;
var bool: X_INTRODUCED_165_ ::var_is_introduced :: is_defined_var;
var bool: X_INTRODUCED_167_ ::var_is_introduced :: is_defined_var;
var 0..1: X_INTRODUCED_168_ ::var_is_introduced :: is_defined_var;
var bool: X_INTRODUCED_173_ ::var_is_introduced :: is_defined_var;
var bool: X_INTRODUCED_174_ ::var_is_introduced :: is_defined_var;
var bool: X_INTRODUCED_176_ ::var_is_introduced :: is_defined_var;
var 0..1: X_INTRODUCED_177_ ::var_is_introduced :: is_defined_var;
var bool: X_INTRODUCED_182_ ::var_is_introduced :: is_defined_var;
var bool: X_INTRODUCED_183_ ::var_is_introduced :: is_defined_var;
var bool: X_INTRODUCED_185_ ::var_is_introduced :: is_defined_var;
var 0..1: X_INTRODUCED_186_ ::var_is_introduced :: is_defined_var;
var bool: X_INTRODUCED_191_ ::var_is_introduced :: is_defined_var;
var bool: X_INTRODUCED_192_ ::var_is_introduced :: is_defined_var;
var bool: X_INTRODUCED_194_ ::var_is_introduced :: is_defined_var;
var bool: X_INTRODUCED_196_ ::var_is_introduced :: is_defined_var;
var bool: X_INTRODUCED_198_ ::var_is_introduced :: is_defined_var;
var bool: X_INTRODUCED_200_ ::var_is_introduced :: is_defined_var;
var bool: X_INTRODUCED_202_ ::var_is_introduced :: is_defined_var;
var 1..2: X_INTRODUCED_204_ ::var_is_introduced :: is_defined_var;
var set of 1..5: X_INTRODUCED_205_ ::var_is_introduced ;
var bool: X_INTRODUCED_207_ ::var_is_introduced :: is_defined_var;
var bool: X_INTRODUCED_208_ ::var_is_introduced :: is_defined_var;
var bool: X_INTRODUCED_209_ ::var_is_introduced :: is_defined_var;
var bool: X_INTRODUCED_210_ ::var_is_introduced :: is_defined_var;
var bool: X_INTRODUCED_211_ ::var_is_introduced :: is_defined_var;
var bool: X_INTRODUCED_212_ ::var_is_introduced :: is_defined_var;
var bool: X_INTRODUCED_213_ ::var_is_introduced :: is_defined_var;
var bool: X_INTRODUCED_214_ ::var_is_introduced :: is_defined_var;
var 0..270: X_INTRODUCED_215_ ::var_is_introduced ;
var bool: X_INTRODUCED_223_ ::var_is_introduced :: is_defined_var;
var 0..270: X_INTRODUCED_224_ ::var_is_introduced ;
var bool: X_INTRODUCED_232_ ::var_is_introduced :: is_defined_var;
var 0..270: X_INTRODUCED_233_ ::var_is_introduced ;
var bool: X_INTRODUCED_241_ ::var_is_introduced :: is_defined_var;
var 0..270: X_INTRODUCED_242_ ::var_is_introduced ;
var bool: X_INTRODUCED_250_ ::var_is_introduced :: is_defined_var;
var set of 1..4: X_INTRODUCED_255_ ::var_is_introduced ;
var bool: X_INTRODUCED_256_ ::var_is_introduced :: is_defined_var;
var bool: X_INTRODUCED_257_ ::var_is_introduced :: is_defined_var;
var bool: X_INTRODUCED_258_ ::var_is_introduced :: is_defined_var;
var bool: X_INTRODUCED_259_ ::var_is_introduced :: is_defined_var;
var 0..13: X_INTRODUCED_260_ ::var_is_introduced ;
var bool: X_INTRODUCED_268_ ::var_is_introduced :: is_defined_var;
var 0..13: X_INTRODUCED_269_ ::var_is_introduced ;
var bool: X_INTRODUCED_276_ ::var_is_introduced :: is_defined_var;
var 0..13: X_INTRODUCED_277_ ::var_is_introduced ;
var bool: X_INTRODUCED_284_ ::var_is_introduced :: is_defined_var;
var 0..13: X_INTRODUCED_285_ ::var_is_introduced ;
var bool: X_INTRODUCED_292_ ::var_is_introduced :: is_defined_var;
var 1..2: X_INTRODUCED_296_ ::var_is_introduced :: is_defined_var;
var set of 1..5: X_INTRODUCED_297_ ::var_is_introduced ;
var bool: X_INTRODUCED_299_ ::var_is_introduced :: is_defined_var;
var bool: X_INTRODUCED_300_ ::var_is_introduced :: is_defined_var;
var bool: X_INTRODUCED_301_ ::var_is_introduced :: is_defined_var;
var bool: X_INTRODUCED_302_ ::var_is_introduced :: is_defined_var;
var bool: X_INTRODUCED_303_ ::var_is_introduced :: is_defined_var;
var bool: X_INTRODUCED_304_ ::var_is_introduced :: is_defined_var;
var bool: X_INTRODUCED_305_ ::var_is_introduced :: is_defined_var;
var bool: X_INTRODUCED_306_ ::var_is_introduced :: is_defined_var;
var 0..90: X_INTRODUCED_307_ ::var_is_introduced ;
var bool: X_INTRODUCED_315_ ::var_is_introduced :: is_defined_var;
var 0..90: X_INTRODUCED_316_ ::var_is_introduced ;
var bool: X_INTRODUCED_324_ ::var_is_introduced :: is_defined_var;
var 0..90: X_INTRODUCED_325_ ::var_is_introduced ;
var bool: X_INTRODUCED_333_ ::var_is_introduced :: is_defined_var;
var 0..90: X_INTRODUCED_334_ ::var_is_introduced ;
var bool: X_INTRODUCED_342_ ::var_is_introduced :: is_defined_var;
var set of 1..4: X_INTRODUCED_346_ ::var_is_introduced ;
var bool: X_INTRODUCED_347_ ::var_is_introduced :: is_defined_var;
var bool: X_INTRODUCED_348_ ::var_is_introduced :: is_defined_var;
var bool: X_INTRODUCED_349_ ::var_is_introduced :: is_defined_var;
var bool: X_INTRODUCED_350_ ::var_is_introduced :: is_defined_var;
var 0..7: X_INTRODUCED_351_ ::var_is_introduced ;
var bool: X_INTRODUCED_359_ ::var_is_introduced :: is_defined_var;
var 0..7: X_INTRODUCED_360_ ::var_is_introduced ;
var bool: X_INTRODUCED_367_ ::var_is_introduced :: is_defined_var;
var 0..7: X_INTRODUCED_368_ ::var_is_introduced ;
var bool: X_INTRODUCED_375_ ::var_is_introduced :: is_defined_var;
var 0..7: X_INTRODUCED_376_ ::var_is_introduced ;
var bool: X_INTRODUCED_383_ ::var_is_introduced :: is_defined_var;
var 642199..1174579: X_INTRODUCED_391_ ::var_is_introduced :: is_defined_var;
var 642199..1174579: X_INTRODUCED_393_ ::var_is_introduced :: is_defined_var;
var -21529..510851: X_INTRODUCED_394_ ::var_is_introduced :: is_defined_var;
var 0..510851: X_INTRODUCED_396_ ::var_is_introduced :: is_defined_var;
array [1..5] of var int: job_program:: output_array([1..5]) = [X_INTRODUCED_0_,X_INTRODUCED_1_,X_INTRODUCED_2_,X_INTRODUCED_3_,X_INTRODUCED_4_];
array [1..5] of var int: job_length:: output_array([1..5]) = [X_INTRODUCED_5_,X_INTRODUCED_6_,X_INTRODUCED_7_,X_INTRODUCED_8_,X_INTRODUCED_9_];
array [1..10] of var int: X_INTRODUCED_10_:: output_array([1..10]) = [X_INTRODUCED_11_,X_INTRODUCED_12_,X_INTRODUCED_13_,X_INTRODUCED_14_,X_INTRODUCED_15_,X_INTRODUCED_16_,X_INTRODUCED_17_,X_INTRODUCED_18_,X_INTRODUCED_19_,X_INTRODUCED_20_];
array [1..10] of var int: X_INTRODUCED_21_:: output_array([1..10]) = [X_INTRODUCED_22_,X_INTRODUCED_23_,X_INTRODUCED_24_,X_INTRODUCED_25_,X_INTRODUCED_26_,X_INTRODUCED_27_,X_INTRODUCED_28_,X_INTRODUCED_29_,X_INTRODUCED_30_,X_INTRODUCED_31_];
array [1..5] of var int: job_end:: output_array([1..5]) = [X_INTRODUCED_32_,X_INTRODUCED_33_,X_INTRODUCED_34_,X_INTRODUCED_35_,X_INTRODUCED_36_];
array [1..5] of var int: job_time:: output_array([1..5]) = [X_INTRODUCED_37_,X_INTRODUCED_38_,X_INTRODUCED_39_,X_INTRODUCED_40_,X_INTRODUCED_41_];
array [1..2] of var int: demand_end:: output_array([1..2]) = [X_INTRODUCED_42_,X_INTRODUCED_43_];
array [1..2] of var int: demand_end_job:: output_array([1..2]) = [X_INTRODUCED_44_,X_INTRODUCED_45_];
array [1..10] of var int: X_INTRODUCED_46_ ::var_is_introduced  = [X_INTRODUCED_11_,X_INTRODUCED_12_,X_INTRODUCED_13_,X_INTRODUCED_14_,X_INTRODUCED_15_,X_INTRODUCED_16_,X_INTRODUCED_17_,X_INTRODUCED_18_,X_INTRODUCED_19_,X_INTRODUCED_20_];
array [1..11] of var int: X_INTRODUCED_389_ ::var_is_introduced  = [waste,X_INTRODUCED_22_,X_INTRODUCED_23_,X_INTRODUCED_24_,X_INTRODUCED_25_,X_INTRODUCED_26_,X_INTRODUCED_27_,X_INTRODUCED_28_,X_INTRODUCED_29_,X_INTRODUCED_30_,X_INTRODUCED_31_];
constraint bool_clause([X_INTRODUCED_50_,X_INTRODUCED_49_],[]);
constraint bool_clause([X_INTRODUCED_52_,X_INTRODUCED_51_],[]);
constraint bool_clause([X_INTRODUCED_54_,X_INTRODUCED_53_],[]);
constraint bool_clause([X_INTRODUCED_56_,X_INTRODUCED_55_],[]);
constraint bool_clause([X_INTRODUCED_57_,X_INTRODUCED_50_],[]);
constraint bool_clause([X_INTRODUCED_58_,X_INTRODUCED_52_],[]);
constraint bool_clause([X_INTRODUCED_59_,X_INTRODUCED_54_],[]);
constraint bool_clause([X_INTRODUCED_60_,X_INTRODUCED_56_],[]);
constraint bool_clause([X_INTRODUCED_62_,X_INTRODUCED_61_],[]);
constraint gecode_int_element(X_INTRODUCED_0_,0,[0,9,7],X_INTRODUCED_65_):: defines_var(X_INTRODUCED_65_);
constraint int_lin_eq(X_INTRODUCED_66_,[X_INTRODUCED_11_,X_INTRODUCED_12_,X_INTRODUCED_65_],0);
constraint gecode_int_element(X_INTRODUCED_1_,0,[0,9,7],X_INTRODUCED_68_):: defines_var(X_INTRODUCED_68_);
constraint int_lin_eq(X_INTRODUCED_66_,[X_INTRODUCED_13_,X_INTRODUCED_14_,X_INTRODUCED_68_],0);
constraint gecode_int_element(X_INTRODUCED_2_,0,[0,9,7],X_INTRODUCED_70_):: defines_var(X_INTRODUCED_70_);
constraint int_lin_eq(X_INTRODUCED_66_,[X_INTRODUCED_15_,X_INTRODUCED_16_,X_INTRODUCED_70_],0);
constraint gecode_int_element(X_INTRODUCED_3_,0,[0,9,7],X_INTRODUCED_72_):: defines_var(X_INTRODUCED_72_);
constraint int_lin_eq(X_INTRODUCED_66_,[X_INTRODUCED_17_,X_INTRODUCED_18_,X_INTRODUCED_72_],0);
constraint gecode_int_element(X_INTRODUCED_4_,0,[0,9,7],X_INTRODUCED_74_):: defines_var(X_INTRODUCED_74_);
constraint int_lin_eq(X_INTRODUCED_66_,[X_INTRODUCED_19_,X_INTRODUCED_20_,X_INTRODUCED_74_],0);
constraint int_lin_le(X_INTRODUCED_92_,[X_INTRODUCED_22_,X_INTRODUCED_24_,X_INTRODUCED_26_,X_INTRODUCED_28_,X_INTRODUCED_30_],-14);
constraint int_lin_le(X_INTRODUCED_92_,[X_INTRODUCED_23_,X_INTRODUCED_25_,X_INTRODUCED_27_,X_INTRODUCED_29_,X_INTRODUCED_31_],-8);
constraint bool_clause([X_INTRODUCED_95_,X_INTRODUCED_94_],[]);
constraint bool_clause([X_INTRODUCED_96_,X_INTRODUCED_95_],[]);
constraint bool_clause([X_INTRODUCED_98_,X_INTRODUCED_97_],[]);
constraint bool_clause([X_INTRODUCED_99_,X_INTRODUCED_98_],[]);
constraint bool_clause([X_INTRODUCED_101_,X_INTRODUCED_100_],[]);
constraint bool_clause([X_INTRODUCED_102_,X_INTRODUCED_101_],[]);
constraint bool_clause([X_INTRODUCED_104_,X_INTRODUCED_103_],[]);
constraint bool_clause([X_INTRODUCED_105_,X_INTRODUCED_104_],[]);
constraint bool_clause([X_INTRODUCED_107_,X_INTRODUCED_106_],[]);
constraint bool_clause([X_INTRODUCED_108_,X_INTRODUCED_107_],[]);
constraint bool_clause_reif([X_INTRODUCED_113_,X_INTRODUCED_112_],[],true);
constraint bool_clause_reif([X_INTRODUCED_119_,X_INTRODUCED_118_],[],true);
constraint bool_clause_reif([X_INTRODUCED_123_,X_INTRODUCED_122_],[],true);
constraint bool_clause_reif([X_INTRODUCED_127_,X_INTRODUCED_126_],[],true);
constraint bool_clause_reif([X_INTRODUCED_131_,X_INTRODUCED_130_],[],true);
constraint bool_clause_reif([X_INTRODUCED_135_,X_INTRODUCED_134_],[],true);
constraint bool_clause_reif([X_INTRODUCED_139_,X_INTRODUCED_138_],[],true);
constraint bool_clause_reif([X_INTRODUCED_143_,X_INTRODUCED_142_],[],true);
constraint bool_clause_reif([X_INTRODUCED_147_,X_INTRODUCED_146_],[],true);
constraint bool_clause_reif([X_INTRODUCED_151_,X_INTRODUCED_150_],[],true);
constraint bool_clause_reif([X_INTRODUCED_155_,X_INTRODUCED_154_],[],true);
constraint bool_clause_reif([X_INTRODUCED_165_,X_INTRODUCED_164_],[],true);
constraint bool_clause_reif([X_INTRODUCED_174_,X_INTRODUCED_173_],[],true);
constraint bool_clause_reif([X_INTRODUCED_183_,X_INTRODUCED_182_],[],true);
constraint bool_clause_reif([X_INTRODUCED_192_,X_INTRODUCED_191_],[],true);
constraint bool_clause_reif([X_INTRODUCED_194_,X_INTRODUCED_50_],[],true);
constraint bool_clause_reif([X_INTRODUCED_196_,X_INTRODUCED_52_],[],true);
constraint bool_clause_reif([X_INTRODUCED_198_,X_INTRODUCED_54_],[],true);
constraint bool_clause_reif([X_INTRODUCED_200_,X_INTRODUCED_56_],[],true);
constraint bool_clause_reif([X_INTRODUCED_202_,X_INTRODUCED_62_],[],true);
constraint gecode_int_element(X_INTRODUCED_44_,1,job_end,X_INTRODUCED_42_):: defines_var(X_INTRODUCED_42_);
constraint gecode_int_element(X_INTRODUCED_44_,1,job_program,X_INTRODUCED_204_):: defines_var(X_INTRODUCED_204_);
constraint set_in_reif(1,X_INTRODUCED_205_,true);
constraint bool_eq(X_INTRODUCED_207_,X_INTRODUCED_208_):: domain_change_constraint;
constraint bool_eq(X_INTRODUCED_209_,X_INTRODUCED_210_):: domain_change_constraint;
constraint bool_eq(X_INTRODUCED_211_,X_INTRODUCED_212_):: domain_change_constraint;
constraint bool_eq(X_INTRODUCED_213_,X_INTRODUCED_214_):: domain_change_constraint;
constraint bool_clause([X_INTRODUCED_223_,X_INTRODUCED_207_],[]);
constraint bool_clause([X_INTRODUCED_232_,X_INTRODUCED_209_],[]);
constraint bool_clause([X_INTRODUCED_241_,X_INTRODUCED_211_],[]);
constraint bool_clause([X_INTRODUCED_250_,X_INTRODUCED_213_],[]);
constraint int_lin_le(X_INTRODUCED_92_,[X_INTRODUCED_22_,X_INTRODUCED_215_,X_INTRODUCED_224_,X_INTRODUCED_233_,X_INTRODUCED_242_],-14);
constraint bool_eq(X_INTRODUCED_256_,X_INTRODUCED_208_):: domain_change_constraint;
constraint bool_eq(X_INTRODUCED_257_,X_INTRODUCED_210_):: domain_change_constraint;
constraint bool_eq(X_INTRODUCED_258_,X_INTRODUCED_212_):: domain_change_constraint;
constraint bool_eq(X_INTRODUCED_259_,X_INTRODUCED_214_):: domain_change_constraint;
constraint bool_clause([X_INTRODUCED_268_,X_INTRODUCED_256_],[]);
constraint bool_clause([X_INTRODUCED_276_,X_INTRODUCED_257_],[]);
constraint bool_clause([X_INTRODUCED_284_,X_INTRODUCED_258_],[]);
constraint bool_clause([X_INTRODUCED_292_,X_INTRODUCED_259_],[]);
constraint int_lin_le(X_INTRODUCED_295_,[X_INTRODUCED_260_,X_INTRODUCED_269_,X_INTRODUCED_277_,X_INTRODUCED_285_],13);
constraint gecode_int_element(X_INTRODUCED_45_,1,job_end,X_INTRODUCED_43_):: defines_var(X_INTRODUCED_43_);
constraint gecode_int_element(X_INTRODUCED_45_,1,job_program,X_INTRODUCED_296_):: defines_var(X_INTRODUCED_296_);
constraint set_in_reif(1,X_INTRODUCED_297_,true);
constraint bool_eq(X_INTRODUCED_299_,X_INTRODUCED_300_):: domain_change_constraint;
constraint bool_eq(X_INTRODUCED_301_,X_INTRODUCED_302_):: domain_change_constraint;
constraint bool_eq(X_INTRODUCED_303_,X_INTRODUCED_304_):: domain_change_constraint;
constraint bool_eq(X_INTRODUCED_305_,X_INTRODUCED_306_):: domain_change_constraint;
constraint bool_clause([X_INTRODUCED_315_,X_INTRODUCED_299_],[]);
constraint bool_clause([X_INTRODUCED_324_,X_INTRODUCED_301_],[]);
constraint bool_clause([X_INTRODUCED_333_,X_INTRODUCED_303_],[]);
constraint bool_clause([X_INTRODUCED_342_,X_INTRODUCED_305_],[]);
constraint int_lin_le(X_INTRODUCED_92_,[X_INTRODUCED_23_,X_INTRODUCED_307_,X_INTRODUCED_316_,X_INTRODUCED_325_,X_INTRODUCED_334_],-8);
constraint bool_eq(X_INTRODUCED_347_,X_INTRODUCED_300_):: domain_change_constraint;
constraint bool_eq(X_INTRODUCED_348_,X_INTRODUCED_302_):: domain_change_constraint;
constraint bool_eq(X_INTRODUCED_349_,X_INTRODUCED_304_):: domain_change_constraint;
constraint bool_eq(X_INTRODUCED_350_,X_INTRODUCED_306_):: domain_change_constraint;
constraint bool_clause([X_INTRODUCED_359_,X_INTRODUCED_347_],[]);
constraint bool_clause([X_INTRODUCED_367_,X_INTRODUCED_348_],[]);
constraint bool_clause([X_INTRODUCED_375_,X_INTRODUCED_349_],[]);
constraint bool_clause([X_INTRODUCED_350_,X_INTRODUCED_383_],[]);
constraint int_lin_le(X_INTRODUCED_295_,[X_INTRODUCED_351_,X_INTRODUCED_360_,X_INTRODUCED_368_,X_INTRODUCED_376_],7);
constraint array_int_maximum(makespan,job_end):: defines_var(makespan);
constraint int_lin_eq(X_INTRODUCED_390_,X_INTRODUCED_389_,-22):: defines_var(waste);
constraint int_max(0,X_INTRODUCED_391_,X_INTRODUCED_393_):: defines_var(X_INTRODUCED_393_);
constraint int_max(0,X_INTRODUCED_394_,X_INTRODUCED_396_):: defines_var(X_INTRODUCED_396_);
constraint int_lin_eq(X_INTRODUCED_398_,[tardiness,X_INTRODUCED_393_,X_INTRODUCED_396_],0):: defines_var(tardiness);
constraint int_eq_imp(X_INTRODUCED_215_,X_INTRODUCED_24_,X_INTRODUCED_207_);
constraint int_eq_imp(X_INTRODUCED_224_,X_INTRODUCED_26_,X_INTRODUCED_209_);
constraint int_eq_imp(X_INTRODUCED_233_,X_INTRODUCED_28_,X_INTRODUCED_211_);
constraint int_eq_imp(X_INTRODUCED_242_,X_INTRODUCED_30_,X_INTRODUCED_213_);
constraint int_eq_imp(X_INTRODUCED_260_,X_INTRODUCED_22_,X_INTRODUCED_256_);
constraint int_eq_imp(X_INTRODUCED_269_,X_INTRODUCED_24_,X_INTRODUCED_257_);
constraint int_eq_imp(X_INTRODUCED_277_,X_INTRODUCED_26_,X_INTRODUCED_258_);
constraint int_eq_imp(X_INTRODUCED_285_,X_INTRODUCED_28_,X_INTRODUCED_259_);
constraint int_eq_imp(X_INTRODUCED_307_,X_INTRODUCED_25_,X_INTRODUCED_299_);
constraint int_eq_imp(X_INTRODUCED_316_,X_INTRODUCED_27_,X_INTRODUCED_301_);
constraint int_eq_imp(X_INTRODUCED_325_,X_INTRODUCED_29_,X_INTRODUCED_303_);
constraint int_eq_imp(X_INTRODUCED_334_,X_INTRODUCED_31_,X_INTRODUCED_305_);
constraint int_eq_imp(X_INTRODUCED_351_,X_INTRODUCED_23_,X_INTRODUCED_347_);
constraint int_eq_imp(X_INTRODUCED_360_,X_INTRODUCED_25_,X_INTRODUCED_348_);
constraint int_eq_imp(X_INTRODUCED_368_,X_INTRODUCED_27_,X_INTRODUCED_349_);
constraint int_eq_imp(X_INTRODUCED_376_,X_INTRODUCED_29_,X_INTRODUCED_350_);
constraint int_times(X_INTRODUCED_11_,X_INTRODUCED_5_,X_INTRODUCED_22_):: defines_var(X_INTRODUCED_22_);
constraint int_times(X_INTRODUCED_12_,X_INTRODUCED_5_,X_INTRODUCED_23_):: defines_var(X_INTRODUCED_23_);
constraint int_times(X_INTRODUCED_13_,X_INTRODUCED_6_,X_INTRODUCED_24_):: defines_var(X_INTRODUCED_24_);
constraint int_times(X_INTRODUCED_14_,X_INTRODUCED_6_,X_INTRODUCED_25_):: defines_var(X_INTRODUCED_25_);
constraint int_times(X_INTRODUCED_15_,X_INTRODUCED_7_,X_INTRODUCED_26_):: defines_var(X_INTRODUCED_26_);
constraint int_times(X_INTRODUCED_16_,X_INTRODUCED_7_,X_INTRODUCED_27_):: defines_var(X_INTRODUCED_27_);
constraint int_times(X_INTRODUCED_17_,X_INTRODUCED_8_,X_INTRODUCED_28_):: defines_var(X_INTRODUCED_28_);
constraint int_times(X_INTRODUCED_18_,X_INTRODUCED_8_,X_INTRODUCED_29_):: defines_var(X_INTRODUCED_29_);
constraint int_times(X_INTRODUCED_19_,X_INTRODUCED_9_,X_INTRODUCED_30_):: defines_var(X_INTRODUCED_30_);
constraint int_times(X_INTRODUCED_20_,X_INTRODUCED_9_,X_INTRODUCED_31_):: defines_var(X_INTRODUCED_31_);
constraint int_lin_eq([1,1,1,-1],[tardiness,makespan,waste,X_INTRODUCED_47_],0):: ctx_neg:: defines_var(X_INTRODUCED_47_);
constraint int_eq_imp(X_INTRODUCED_1_,0,X_INTRODUCED_49_):: defines_var(X_INTRODUCED_49_);
constraint int_ne_reif(X_INTRODUCED_0_,0,X_INTRODUCED_50_):: defines_var(X_INTRODUCED_50_);
constraint int_eq_imp(X_INTRODUCED_2_,0,X_INTRODUCED_51_):: defines_var(X_INTRODUCED_51_);
constraint int_ne_reif(X_INTRODUCED_1_,0,X_INTRODUCED_52_):: defines_var(X_INTRODUCED_52_);
constraint int_eq_imp(X_INTRODUCED_3_,0,X_INTRODUCED_53_):: defines_var(X_INTRODUCED_53_);
constraint int_ne_reif(X_INTRODUCED_2_,0,X_INTRODUCED_54_):: defines_var(X_INTRODUCED_54_);
constraint int_eq_imp(X_INTRODUCED_4_,0,X_INTRODUCED_55_):: defines_var(X_INTRODUCED_55_);
constraint int_ne_reif(X_INTRODUCED_3_,0,X_INTRODUCED_56_):: defines_var(X_INTRODUCED_56_);
constraint int_eq_imp(X_INTRODUCED_5_,2,X_INTRODUCED_57_):: defines_var(X_INTRODUCED_57_);
constraint int_eq_imp(X_INTRODUCED_6_,2,X_INTRODUCED_58_):: defines_var(X_INTRODUCED_58_);
constraint int_eq_imp(X_INTRODUCED_7_,2,X_INTRODUCED_59_):: defines_var(X_INTRODUCED_59_);
constraint int_eq_imp(X_INTRODUCED_8_,2,X_INTRODUCED_60_):: defines_var(X_INTRODUCED_60_);
constraint int_eq_imp(X_INTRODUCED_9_,2,X_INTRODUCED_61_):: defines_var(X_INTRODUCED_61_);
constraint int_ne_reif(X_INTRODUCED_4_,0,X_INTRODUCED_62_):: defines_var(X_INTRODUCED_62_);
constraint int_eq_imp(X_INTRODUCED_11_,0,X_INTRODUCED_94_):: defines_var(X_INTRODUCED_94_);
constraint int_eq_reif(X_INTRODUCED_0_,1,X_INTRODUCED_95_):: defines_var(X_INTRODUCED_95_);
constraint int_eq_imp(X_INTRODUCED_12_,0,X_INTRODUCED_96_):: defines_var(X_INTRODUCED_96_);
constraint int_eq_imp(X_INTRODUCED_13_,0,X_INTRODUCED_97_):: defines_var(X_INTRODUCED_97_);
constraint int_eq_reif(X_INTRODUCED_1_,1,X_INTRODUCED_98_):: defines_var(X_INTRODUCED_98_);
constraint int_eq_imp(X_INTRODUCED_14_,0,X_INTRODUCED_99_):: defines_var(X_INTRODUCED_99_);
constraint int_eq_imp(X_INTRODUCED_15_,0,X_INTRODUCED_100_):: defines_var(X_INTRODUCED_100_);
constraint int_eq_reif(X_INTRODUCED_2_,1,X_INTRODUCED_101_):: defines_var(X_INTRODUCED_101_);
constraint int_eq_imp(X_INTRODUCED_16_,0,X_INTRODUCED_102_):: defines_var(X_INTRODUCED_102_);
constraint int_eq_imp(X_INTRODUCED_17_,0,X_INTRODUCED_103_):: defines_var(X_INTRODUCED_103_);
constraint int_eq_reif(X_INTRODUCED_3_,1,X_INTRODUCED_104_):: defines_var(X_INTRODUCED_104_);
constraint int_eq_imp(X_INTRODUCED_18_,0,X_INTRODUCED_105_):: defines_var(X_INTRODUCED_105_);
constraint int_eq_imp(X_INTRODUCED_19_,0,X_INTRODUCED_106_):: defines_var(X_INTRODUCED_106_);
constraint int_eq_reif(X_INTRODUCED_4_,1,X_INTRODUCED_107_):: defines_var(X_INTRODUCED_107_);
constraint int_eq_imp(X_INTRODUCED_20_,0,X_INTRODUCED_108_):: defines_var(X_INTRODUCED_108_);
constraint int_lin_eq_imp(X_INTRODUCED_111_,[X_INTRODUCED_37_,X_INTRODUCED_5_],0,X_INTRODUCED_112_):: defines_var(X_INTRODUCED_112_);
constraint int_ne_imp(X_INTRODUCED_0_,1,X_INTRODUCED_113_):: defines_var(X_INTRODUCED_113_);
constraint int_lin_eq_imp(X_INTRODUCED_117_,[X_INTRODUCED_37_,X_INTRODUCED_5_],0,X_INTRODUCED_118_):: defines_var(X_INTRODUCED_118_);
constraint int_ne_imp(X_INTRODUCED_0_,2,X_INTRODUCED_119_):: defines_var(X_INTRODUCED_119_);
constraint int_lin_eq_imp(X_INTRODUCED_111_,[X_INTRODUCED_38_,X_INTRODUCED_6_],0,X_INTRODUCED_122_):: defines_var(X_INTRODUCED_122_);
constraint int_ne_imp(X_INTRODUCED_1_,1,X_INTRODUCED_123_):: defines_var(X_INTRODUCED_123_);
constraint int_lin_eq_imp(X_INTRODUCED_117_,[X_INTRODUCED_38_,X_INTRODUCED_6_],0,X_INTRODUCED_126_):: defines_var(X_INTRODUCED_126_);
constraint int_ne_imp(X_INTRODUCED_1_,2,X_INTRODUCED_127_):: defines_var(X_INTRODUCED_127_);
constraint int_lin_eq_imp(X_INTRODUCED_111_,[X_INTRODUCED_39_,X_INTRODUCED_7_],0,X_INTRODUCED_130_):: defines_var(X_INTRODUCED_130_);
constraint int_ne_imp(X_INTRODUCED_2_,1,X_INTRODUCED_131_):: defines_var(X_INTRODUCED_131_);
constraint int_lin_eq_imp(X_INTRODUCED_117_,[X_INTRODUCED_39_,X_INTRODUCED_7_],0,X_INTRODUCED_134_):: defines_var(X_INTRODUCED_134_);
constraint int_ne_imp(X_INTRODUCED_2_,2,X_INTRODUCED_135_):: defines_var(X_INTRODUCED_135_);
constraint int_lin_eq_imp(X_INTRODUCED_111_,[X_INTRODUCED_40_,X_INTRODUCED_8_],0,X_INTRODUCED_138_):: defines_var(X_INTRODUCED_138_);
constraint int_ne_imp(X_INTRODUCED_3_,1,X_INTRODUCED_139_):: defines_var(X_INTRODUCED_139_);
constraint int_lin_eq_imp(X_INTRODUCED_117_,[X_INTRODUCED_40_,X_INTRODUCED_8_],0,X_INTRODUCED_142_):: defines_var(X_INTRODUCED_142_);
constraint int_ne_imp(X_INTRODUCED_3_,2,X_INTRODUCED_143_):: defines_var(X_INTRODUCED_143_);
constraint int_lin_eq_imp(X_INTRODUCED_111_,[X_INTRODUCED_41_,X_INTRODUCED_9_],0,X_INTRODUCED_146_):: defines_var(X_INTRODUCED_146_);
constraint int_ne_imp(X_INTRODUCED_4_,1,X_INTRODUCED_147_):: defines_var(X_INTRODUCED_147_);
constraint int_lin_eq_imp(X_INTRODUCED_117_,[X_INTRODUCED_41_,X_INTRODUCED_9_],0,X_INTRODUCED_150_):: defines_var(X_INTRODUCED_150_);
constraint int_ne_imp(X_INTRODUCED_4_,2,X_INTRODUCED_151_):: defines_var(X_INTRODUCED_151_);
constraint int_eq_imp(X_INTRODUCED_32_,X_INTRODUCED_37_,X_INTRODUCED_154_):: defines_var(X_INTRODUCED_154_);
constraint int_le_imp(X_INTRODUCED_0_,0,X_INTRODUCED_155_):: defines_var(X_INTRODUCED_155_);
constraint int_lin_ne_reif(X_INTRODUCED_158_,[X_INTRODUCED_0_,X_INTRODUCED_1_],0,X_INTRODUCED_159_):: defines_var(X_INTRODUCED_159_);
constraint bool2int(X_INTRODUCED_159_,X_INTRODUCED_160_):: defines_var(X_INTRODUCED_160_);
constraint int_lin_eq_imp(X_INTRODUCED_163_,[X_INTRODUCED_33_,X_INTRODUCED_37_,X_INTRODUCED_38_,X_INTRODUCED_160_],300,X_INTRODUCED_164_):: defines_var(X_INTRODUCED_164_);
constraint int_le_imp(X_INTRODUCED_1_,0,X_INTRODUCED_165_):: defines_var(X_INTRODUCED_165_);
constraint int_lin_ne_reif(X_INTRODUCED_158_,[X_INTRODUCED_1_,X_INTRODUCED_2_],0,X_INTRODUCED_167_):: defines_var(X_INTRODUCED_167_);
constraint bool2int(X_INTRODUCED_167_,X_INTRODUCED_168_):: defines_var(X_INTRODUCED_168_);
constraint int_lin_eq_imp(X_INTRODUCED_172_,[X_INTRODUCED_34_,X_INTRODUCED_37_,X_INTRODUCED_38_,X_INTRODUCED_160_,X_INTRODUCED_39_,X_INTRODUCED_168_],600,X_INTRODUCED_173_):: defines_var(X_INTRODUCED_173_);
constraint int_le_imp(X_INTRODUCED_2_,0,X_INTRODUCED_174_):: defines_var(X_INTRODUCED_174_);
constraint int_lin_ne_reif(X_INTRODUCED_158_,[X_INTRODUCED_2_,X_INTRODUCED_3_],0,X_INTRODUCED_176_):: defines_var(X_INTRODUCED_176_);
constraint bool2int(X_INTRODUCED_176_,X_INTRODUCED_177_):: defines_var(X_INTRODUCED_177_);
constraint int_lin_eq_imp(X_INTRODUCED_181_,[X_INTRODUCED_35_,X_INTRODUCED_37_,X_INTRODUCED_38_,X_INTRODUCED_160_,X_INTRODUCED_39_,X_INTRODUCED_168_,X_INTRODUCED_40_,X_INTRODUCED_177_],900,X_INTRODUCED_182_):: defines_var(X_INTRODUCED_182_);
constraint int_le_imp(X_INTRODUCED_3_,0,X_INTRODUCED_183_):: defines_var(X_INTRODUCED_183_);
constraint int_lin_ne_reif(X_INTRODUCED_158_,[X_INTRODUCED_3_,X_INTRODUCED_4_],0,X_INTRODUCED_185_):: defines_var(X_INTRODUCED_185_);
constraint bool2int(X_INTRODUCED_185_,X_INTRODUCED_186_):: defines_var(X_INTRODUCED_186_);
constraint int_lin_eq_imp(X_INTRODUCED_190_,[X_INTRODUCED_36_,X_INTRODUCED_37_,X_INTRODUCED_38_,X_INTRODUCED_160_,X_INTRODUCED_39_,X_INTRODUCED_168_,X_INTRODUCED_40_,X_INTRODUCED_177_,X_INTRODUCED_41_,X_INTRODUCED_186_],1200,X_INTRODUCED_191_):: defines_var(X_INTRODUCED_191_);
constraint int_le_imp(X_INTRODUCED_4_,0,X_INTRODUCED_192_):: defines_var(X_INTRODUCED_192_);
constraint int_eq_imp(X_INTRODUCED_32_,6120,X_INTRODUCED_194_):: defines_var(X_INTRODUCED_194_);
constraint int_eq_imp(X_INTRODUCED_33_,6120,X_INTRODUCED_196_):: defines_var(X_INTRODUCED_196_);
constraint int_eq_imp(X_INTRODUCED_34_,6120,X_INTRODUCED_198_):: defines_var(X_INTRODUCED_198_);
constraint int_eq_imp(X_INTRODUCED_35_,6120,X_INTRODUCED_200_):: defines_var(X_INTRODUCED_200_);
constraint int_eq_imp(X_INTRODUCED_36_,6120,X_INTRODUCED_202_):: defines_var(X_INTRODUCED_202_);
constraint set_in_reif(2,X_INTRODUCED_205_,X_INTRODUCED_207_):: defines_var(X_INTRODUCED_207_);
constraint int_le_reif(2,X_INTRODUCED_44_,X_INTRODUCED_208_):: defines_var(X_INTRODUCED_208_);
constraint set_in_reif(3,X_INTRODUCED_205_,X_INTRODUCED_209_):: defines_var(X_INTRODUCED_209_);
constraint int_le_reif(3,X_INTRODUCED_44_,X_INTRODUCED_210_):: defines_var(X_INTRODUCED_210_);
constraint set_in_reif(4,X_INTRODUCED_205_,X_INTRODUCED_211_):: defines_var(X_INTRODUCED_211_);
constraint int_le_reif(4,X_INTRODUCED_44_,X_INTRODUCED_212_):: defines_var(X_INTRODUCED_212_);
constraint set_in_reif(5,X_INTRODUCED_205_,X_INTRODUCED_213_):: defines_var(X_INTRODUCED_213_);
constraint int_le_reif(5,X_INTRODUCED_44_,X_INTRODUCED_214_):: defines_var(X_INTRODUCED_214_);
constraint int_eq_imp(X_INTRODUCED_215_,0,X_INTRODUCED_223_):: defines_var(X_INTRODUCED_223_);
constraint int_eq_imp(X_INTRODUCED_224_,0,X_INTRODUCED_232_):: defines_var(X_INTRODUCED_232_);
constraint int_eq_imp(X_INTRODUCED_233_,0,X_INTRODUCED_241_):: defines_var(X_INTRODUCED_241_);
constraint int_eq_imp(X_INTRODUCED_242_,0,X_INTRODUCED_250_):: defines_var(X_INTRODUCED_250_);
constraint set_in_reif(1,X_INTRODUCED_255_,X_INTRODUCED_256_):: defines_var(X_INTRODUCED_256_);
constraint set_in_reif(2,X_INTRODUCED_255_,X_INTRODUCED_257_):: defines_var(X_INTRODUCED_257_);
constraint set_in_reif(3,X_INTRODUCED_255_,X_INTRODUCED_258_):: defines_var(X_INTRODUCED_258_);
constraint set_in_reif(4,X_INTRODUCED_255_,X_INTRODUCED_259_):: defines_var(X_INTRODUCED_259_);
constraint int_eq_imp(X_INTRODUCED_260_,0,X_INTRODUCED_268_):: defines_var(X_INTRODUCED_268_);
constraint int_eq_imp(X_INTRODUCED_269_,0,X_INTRODUCED_276_):: defines_var(X_INTRODUCED_276_);
constraint int_eq_imp(X_INTRODUCED_277_,0,X_INTRODUCED_284_):: defines_var(X_INTRODUCED_284_);
constraint int_eq_imp(X_INTRODUCED_285_,0,X_INTRODUCED_292_):: defines_var(X_INTRODUCED_292_);
constraint set_in_reif(2,X_INTRODUCED_297_,X_INTRODUCED_299_):: defines_var(X_INTRODUCED_299_);
constraint int_le_reif(2,X_INTRODUCED_45_,X_INTRODUCED_300_):: defines_var(X_INTRODUCED_300_);
constraint set_in_reif(3,X_INTRODUCED_297_,X_INTRODUCED_301_):: defines_var(X_INTRODUCED_301_);
constraint int_le_reif(3,X_INTRODUCED_45_,X_INTRODUCED_302_):: defines_var(X_INTRODUCED_302_);
constraint set_in_reif(4,X_INTRODUCED_297_,X_INTRODUCED_303_):: defines_var(X_INTRODUCED_303_);
constraint int_le_reif(4,X_INTRODUCED_45_,X_INTRODUCED_304_):: defines_var(X_INTRODUCED_304_);
constraint set_in_reif(5,X_INTRODUCED_297_,X_INTRODUCED_305_):: defines_var(X_INTRODUCED_305_);
constraint int_le_reif(5,X_INTRODUCED_45_,X_INTRODUCED_306_):: defines_var(X_INTRODUCED_306_);
constraint int_eq_imp(X_INTRODUCED_307_,0,X_INTRODUCED_315_):: defines_var(X_INTRODUCED_315_);
constraint int_eq_imp(X_INTRODUCED_316_,0,X_INTRODUCED_324_):: defines_var(X_INTRODUCED_324_);
constraint int_eq_imp(X_INTRODUCED_325_,0,X_INTRODUCED_333_):: defines_var(X_INTRODUCED_333_);
constraint int_eq_imp(X_INTRODUCED_334_,0,X_INTRODUCED_342_):: defines_var(X_INTRODUCED_342_);
constraint set_in_reif(1,X_INTRODUCED_346_,X_INTRODUCED_347_):: defines_var(X_INTRODUCED_347_);
constraint set_in_reif(2,X_INTRODUCED_346_,X_INTRODUCED_348_):: defines_var(X_INTRODUCED_348_);
constraint set_in_reif(3,X_INTRODUCED_346_,X_INTRODUCED_349_):: defines_var(X_INTRODUCED_349_);
constraint set_in_reif(4,X_INTRODUCED_346_,X_INTRODUCED_350_):: defines_var(X_INTRODUCED_350_);
constraint int_eq_imp(X_INTRODUCED_351_,0,X_INTRODUCED_359_):: defines_var(X_INTRODUCED_359_);
constraint int_eq_imp(X_INTRODUCED_360_,0,X_INTRODUCED_367_):: defines_var(X_INTRODUCED_367_);
constraint int_eq_imp(X_INTRODUCED_368_,0,X_INTRODUCED_375_):: defines_var(X_INTRODUCED_375_);
constraint int_eq_imp(X_INTRODUCED_376_,0,X_INTRODUCED_383_):: defines_var(X_INTRODUCED_383_);
constraint int_lin_eq([1,-1],[X_INTRODUCED_42_,X_INTRODUCED_391_],-636079):: defines_var(X_INTRODUCED_391_);
constraint int_lin_eq([1,-1],[X_INTRODUCED_43_,X_INTRODUCED_394_],27649):: defines_var(X_INTRODUCED_394_);
solve :: int_search(X_INTRODUCED_46_,smallest,indomain_min,complete) minimize X_INTRODUCED_47_;
